benchmarks/VRPTW/TSPTW/solution/n40w20.001.txt.solution
1 8 14 17 38 7 16 13 40 3 36 26 5 24 33 4 39 9 2 19 34 15 6 37 11 32 23 22 27 10 20 12 30 28 35 29 25 21 18 41 31 
500
